c description: There is a graph of 7 vertices with a 2-clique and a 2-coloring
c generator: CNFgen (0.9.0)
c copyright: (C) 2012-2020 Massimo Lauria <massimo.lauria@uniroma1.it>
c url: https://massimolauria.net/cnfgen
c
p cnf 49 149
-22 -23 0
-22 -24 0
-22 -25 0
-22 -26 0
-22 -27 0
-22 -28 0
-23 -24 0
-23 -25 0
-23 -26 0
-23 -27 0
-23 -28 0
-24 -25 0
-24 -26 0
-24 -27 0
-24 -28 0
-25 -26 0
-25 -27 0
-25 -28 0
-26 -27 0
-26 -28 0
-27 -28 0
22 23 24 25 26 27 28 0
-29 -30 0
-29 -31 0
-29 -32 0
-29 -33 0
-29 -34 0
-29 -35 0
-30 -31 0
-30 -32 0
-30 -33 0
-30 -34 0
-30 -35 0
-31 -32 0
-31 -33 0
-31 -34 0
-31 -35 0
-32 -33 0
-32 -34 0
-32 -35 0
-33 -34 0
-33 -35 0
-34 -35 0
29 30 31 32 33 34 35 0
-22 -29 0
-23 -30 0
-24 -31 0
-25 -32 0
-26 -33 0
-27 -34 0
-28 -35 0
1 -22 -30 0
1 -29 -23 0
2 -22 -31 0
2 -29 -24 0
3 -22 -32 0
3 -29 -25 0
4 -22 -33 0
4 -29 -26 0
5 -22 -34 0
5 -29 -27 0
6 -22 -35 0
6 -29 -28 0
7 -23 -31 0
7 -30 -24 0
8 -23 -32 0
8 -30 -25 0
9 -23 -33 0
9 -30 -26 0
10 -23 -34 0
10 -30 -27 0
11 -23 -35 0
11 -30 -28 0
12 -24 -32 0
12 -31 -25 0
13 -24 -33 0
13 -31 -26 0
14 -24 -34 0
14 -31 -27 0
15 -24 -35 0
15 -31 -28 0
16 -25 -33 0
16 -32 -26 0
17 -25 -34 0
17 -32 -27 0
18 -25 -35 0
18 -32 -28 0
19 -26 -34 0
19 -33 -27 0
20 -26 -35 0
20 -33 -28 0
21 -27 -35 0
21 -34 -28 0
-36 -37 0
36 37 0
-38 -39 0
38 39 0
-40 -41 0
40 41 0
-42 -43 0
42 43 0
-44 -45 0
44 45 0
-46 -47 0
46 47 0
-48 -49 0
48 49 0
-1 -36 -38 0
-1 -37 -39 0
-2 -36 -40 0
-2 -37 -41 0
-3 -36 -42 0
-3 -37 -43 0
-4 -36 -44 0
-4 -37 -45 0
-5 -36 -46 0
-5 -37 -47 0
-6 -36 -48 0
-6 -37 -49 0
-7 -38 -40 0
-7 -39 -41 0
-8 -38 -42 0
-8 -39 -43 0
-9 -38 -44 0
-9 -39 -45 0
-10 -38 -46 0
-10 -39 -47 0
-11 -38 -48 0
-11 -39 -49 0
-12 -40 -42 0
-12 -41 -43 0
-13 -40 -44 0
-13 -41 -45 0
-14 -40 -46 0
-14 -41 -47 0
-15 -40 -48 0
-15 -41 -49 0
-16 -42 -44 0
-16 -43 -45 0
-17 -42 -46 0
-17 -43 -47 0
-18 -42 -48 0
-18 -43 -49 0
-19 -44 -46 0
-19 -45 -47 0
-20 -44 -48 0
-20 -45 -49 0
-21 -46 -48 0
-21 -47 -49 0